NAME : n80w140.003.673.tour
COMMENT : Length = 673
COMMENT : Found by LKH [Keld Helsgaun] Tue Nov  7 19:39:33 2017
TYPE : TOUR
DIMENSION : 81
TOUR_SECTION
1
53
20
58
43
46
55
36
11
41
68
29
70
80
65
54
72
28
57
5
13
12
45
19
33
25
59
62
50
74
40
18
39
30
15
32
47
77
22
6
8
9
35
52
73
21
34
63
7
66
56
69
16
24
23
17
60
75
79
42
48
4
44
14
76
49
31
64
26
3
10
37
2
67
51
71
78
81
61
38
27
-1
EOF
